RSW01
Position Depot: Center
Horizon for Depot: Small
Position of customers: Random
Distribution of the demand: Medium
Width of time windows: Wide
Distribution of the service: Large

VEHICLE 
NUMBER 	 CAPACITY 
 10 	 	 188 
 
CUSTOMER
CUST NO. 	 XCOORD.  	 YCOORD. 	 DEMAND 	 READY TIME 	 DUE DATE 	 SERVICE TIME 
 0 	 	 500 	 	 500 	 	 0 	 	 0 	 	 2006 	 	 0 
  1 	 	 760 	 	 140 	 	 9 	 	 1181 	 	 1433 	 	 120 
  2 	 	 610 	 	 722 	 	 8 	 	 -87 	 	 272 	 	 104 
  3 	 	 909 	 	 676 	 	 5 	 	 869 	 	 1149 	 	 152 
  4 	 	 881 	 	 257 	 	 6 	 	 370 	 	 665 	 	 167 
  5 	 	 604 	 	 978 	 	 10 	 	 1030 	 	 1506 	 	 113 
  6 	 	 618 	 	 160 	 	 4 	 	 125 	 	 395 	 	 166 
  7 	 	 768 	 	 645 	 	 98 	 	 1179 	 	 1611 	 	 194 
  8 	 	 656 	 	 569 	 	 84 	 	 981 	 	 1307 	 	 122 
  9 	 	 427 	 	 431 	 	 3 	 	 -103 	 	 265 	 	 188 
  10 	 	 816 	 	 12 	 	 98 	 	 1310 	 	 1597 	 	 118 
  11 	 	 377 	 	 845 	 	 92 	 	 1082 	 	 1303 	 	 191 
  12 	 	 810 	 	 745 	 	 76 	 	 1602 	 	 1882 	 	 141 
  13 	 	 600 	 	 219 	 	 8 	 	 407 	 	 745 	 	 174 
  14 	 	 657 	 	 531 	 	 10 	 	 1550 	 	 2006 	 	 161 
  15 	 	 229 	 	 771 	 	 98 	 	 1724 	 	 2006 	 	 190 
  16 	 	 67 	 	 579 	 	 3 	 	 627 	 	 913 	 	 102 
  17 	 	 713 	 	 882 	 	 1 	 	 -6 	 	 481 	 	 107 
  18 	 	 626 	 	 510 	 	 1 	 	 841 	 	 1175 	 	 136 
  19 	 	 282 	 	 748 	 	 2 	 	 1602 	 	 1846 	 	 139 
  20 	 	 913 	 	 646 	 	 7 	 	 1706 	 	 2006 	 	 130 
  21 	 	 539 	 	 157 	 	 5 	 	 296 	 	 547 	 	 144 
  22 	 	 782 	 	 275 	 	 6 	 	 578 	 	 859 	 	 195 
  23 	 	 783 	 	 999 	 	 4 	 	 461 	 	 781 	 	 181 
  24 	 	 67 	 	 42 	 	 88 	 	 1597 	 	 1990 	 	 127 
  25 	 	 373 	 	 897 	 	 2 	 	 1331 	 	 1766 	 	 159 
  26 	 	 339 	 	 699 	 	 9 	 	 -180 	 	 281 	 	 111 
  27 	 	 131 	 	 169 	 	 1 	 	 355 	 	 659 	 	 196 
  28 	 	 906 	 	 717 	 	 7 	 	 487 	 	 781 	 	 113 
  29 	 	 384 	 	 980 	 	 83 	 	 243 	 	 543 	 	 108 
  30 	 	 223 	 	 163 	 	 6 	 	 1486 	 	 1803 	 	 133 
  31 	 	 355 	 	 401 	 	 1 	 	 1478 	 	 1911 	 	 125 
  32 	 	 772 	 	 697 	 	 3 	 	 601 	 	 994 	 	 126 
  33 	 	 321 	 	 347 	 	 8 	 	 715 	 	 917 	 	 159 
  34 	 	 360 	 	 658 	 	 80 	 	 576 	 	 804 	 	 156 
  35 	 	 401 	 	 692 	 	 10 	 	 1155 	 	 1598 	 	 162 
  36 	 	 725 	 	 703 	 	 9 	 	 788 	 	 1106 	 	 111 
  37 	 	 658 	 	 948 	 	 3 	 	 769 	 	 1077 	 	 134 
  38 	 	 166 	 	 554 	 	 7 	 	 1630 	 	 1833 	 	 124 
  39 	 	 578 	 	 612 	 	 5 	 	 1132 	 	 1467 	 	 170 
  40 	 	 265 	 	 78 	 	 98 	 	 687 	 	 910 	 	 172 
  41 	 	 565 	 	 1000 	 	 4 	 	 1203 	 	 1645 	 	 197 
  42 	 	 221 	 	 404 	 	 8 	 	 1046 	 	 1508 	 	 132 
  43 	 	 727 	 	 825 	 	 3 	 	 608 	 	 1014 	 	 163 
  44 	 	 891 	 	 908 	 	 85 	 	 302 	 	 622 	 	 152 
  45 	 	 612 	 	 457 	 	 7 	 	 15 	 	 215 	 	 188 
  46 	 	 194 	 	 873 	 	 2 	 	 1319 	 	 1538 	 	 160 
  47 	 	 842 	 	 195 	 	 3 	 	 535 	 	 756 	 	 185 
  48 	 	 854 	 	 517 	 	 4 	 	 1440 	 	 1848 	 	 167 
  49 	 	 66 	 	 587 	 	 1 	 	 1732 	 	 2006 	 	 101 
  50 	 	 735 	 	 775 	 	 53 	 	 970 	 	 1453 	 	 127 
  51 	 	 767 	 	 179 	 	 3 	 	 1205 	 	 1611 	 	 174 
  52 	 	 792 	 	 1 	 	 6 	 	 1439 	 	 1898 	 	 182 
  53 	 	 779 	 	 27 	 	 2 	 	 1355 	 	 1801 	 	 159 
  54 	 	 75 	 	 919 	 	 67 	 	 1541 	 	 2006 	 	 102 
  55 	 	 811 	 	 423 	 	 68 	 	 951 	 	 1437 	 	 174 
  56 	 	 205 	 	 185 	 	 10 	 	 418 	 	 773 	 	 125 
  57 	 	 578 	 	 531 	 	 5 	 	 1529 	 	 1835 	 	 127 
  58 	 	 777 	 	 240 	 	 4 	 	 1545 	 	 2000 	 	 140 
  59 	 	 408 	 	 807 	 	 2 	 	 641 	 	 879 	 	 159 
  60 	 	 258 	 	 487 	 	 1 	 	 458 	 	 902 	 	 188 
  61 	 	 10 	 	 252 	 	 1 	 	 683 	 	 932 	 	 129 
  62 	 	 54 	 	 307 	 	 2 	 	 1686 	 	 1935 	 	 135 
  63 	 	 287 	 	 737 	 	 65 	 	 963 	 	 1242 	 	 161 
  64 	 	 57 	 	 421 	 	 1 	 	 125 	 	 494 	 	 180 
  65 	 	 444 	 	 305 	 	 8 	 	 442 	 	 859 	 	 180 
  66 	 	 26 	 	 172 	 	 4 	 	 360 	 	 634 	 	 178 
  67 	 	 714 	 	 327 	 	 9 	 	 1018 	 	 1376 	 	 196 
  68 	 	 543 	 	 783 	 	 8 	 	 134 	 	 441 	 	 153 
  69 	 	 220 	 	 106 	 	 3 	 	 1747 	 	 1954 	 	 181 
  70 	 	 973 	 	 21 	 	 9 	 	 1447 	 	 1938 	 	 109 
  71 	 	 190 	 	 367 	 	 9 	 	 1149 	 	 1437 	 	 123 
  72 	 	 754 	 	 426 	 	 2 	 	 1805 	 	 2006 	 	 161 
  73 	 	 789 	 	 662 	 	 3 	 	 1002 	 	 1388 	 	 117 
  74 	 	 612 	 	 242 	 	 4 	 	 1535 	 	 2006 	 	 199 
  75 	 	 649 	 	 988 	 	 5 	 	 748 	 	 1053 	 	 174 
  76 	 	 702 	 	 941 	 	 5 	 	 250 	 	 533 	 	 125 
  77 	 	 712 	 	 502 	 	 84 	 	 292 	 	 513 	 	 151 
  78 	 	 644 	 	 352 	 	 7 	 	 303 	 	 602 	 	 199 
  79 	 	 640 	 	 82 	 	 3 	 	 1402 	 	 1855 	 	 177 
  80 	 	 735 	 	 220 	 	 5 	 	 674 	 	 937 	 	 164 
  81 	 	 71 	 	 100 	 	 4 	 	 1193 	 	 1611 	 	 139 
  82 	 	 419 	 	 944 	 	 9 	 	 1133 	 	 1458 	 	 148 
  83 	 	 417 	 	 34 	 	 4 	 	 558 	 	 965 	 	 141 
  84 	 	 782 	 	 419 	 	 7 	 	 226 	 	 491 	 	 189 
  85 	 	 440 	 	 357 	 	 6 	 	 1504 	 	 2000 	 	 198 
  86 	 	 382 	 	 512 	 	 6 	 	 1420 	 	 1683 	 	 142 
  87 	 	 54 	 	 217 	 	 6 	 	 124 	 	 608 	 	 197 
  88 	 	 597 	 	 744 	 	 68 	 	 779 	 	 1265 	 	 122 
  89 	 	 433 	 	 377 	 	 73 	 	 1791 	 	 2006 	 	 121 
  90 	 	 839 	 	 187 	 	 8 	 	 1578 	 	 2006 	 	 187 
  91 	 	 553 	 	 196 	 	 1 	 	 720 	 	 1033 	 	 156 
  92 	 	 316 	 	 430 	 	 9 	 	 190 	 	 621 	 	 114 
  93 	 	 653 	 	 39 	 	 1 	 	 843 	 	 1336 	 	 128 
  94 	 	 245 	 	 32 	 	 6 	 	 289 	 	 586 	 	 114 
  95 	 	 29 	 	 710 	 	 5 	 	 1312 	 	 1560 	 	 117 
  96 	 	 379 	 	 460 	 	 6 	 	 1586 	 	 1817 	 	 165 
  97 	 	 311 	 	 85 	 	 3 	 	 910 	 	 1406 	 	 175 
  98 	 	 214 	 	 536 	 	 10 	 	 1095 	 	 1588 	 	 160 
  99 	 	 293 	 	 696 	 	 9 	 	 1168 	 	 1497 	 	 120 
  100 	 	 181 	 	 538 	 	 3 	 	 1587 	 	 2006 	 	 188 
 